NAME : TW_40_seed_None_id_4
TYPE : CVRPTW
DIMENSION : 11
EDGE_WEIGHT_TYPE : EUC_2D
CAPACITY : 25
SERVICE_TIME : 100
LATE_COEFF : 0
NODE_COORD_SECTION
1	740	708
2	200	913
3	8	675
4	468	457
5	592	931
6	647	100
7	243	126
8	555	558
9	431	289
10	142	440
11	935	680
DEMAND_SECTION
1	0
2	10
3	9
4	8
5	1
6	5
7	1
8	4
9	9
10	6
11	7
TIME_WINDOW_SECTION
1	0	10000
2	7948	9936
3	6171	8225
4	1662	3635
5	3950	5889
6	7189	9198
7	5081	7052
8	7670	9688
9	3971	5952
10	126	2151
11	8250	10000
DEPOT_SECTION
1
-1
EOF
